Traveling Salesman Problem/TSP_generados/Aleatorio1621103236_5.tsp
NAME: Aleatorio1621103236_5.tsp
COMMENT: Randomly generated scenario
TYPE: TSP
DIMENSION: 5
EDGE_WEIGHT_TYPE: ATT
NODE_COORD_SECTION
1 44.05 17.64
2 34.28 33.05
3 1.75 34.09
4 13.1 16.11
5 10.01 23.81
