Traveling Salesman Problem/TSP_generados/Aleatorio1621103236_5.opt.tour
NAME: Aleatorio1621103236_5.opt.tour
COMMENT: Optimal solution for Aleatorio1621103236_5 (103.2647529764518)
TYPE: TOUR
DIMENSION: 5
TOUR_SECTION
1 2 3 5 4
-1
EOF
